NAME: ACTUAL_TOURS/amz0342
TYPE: TOUR
COMMENT: RouteID_252c28c2-1f8f-4686-b69a-f6ee6ccba334
DIMENSION: 143
TOUR_SECTION
99
56
62
122
88
14
72
21
1
73
116
130
37
18
83
96
12
109
82
142
76
10
27
137
129
4
65
48
108
24
135
70
67
71
104
78
93
113
63
30
42
9
133
95
53
89
32
28
26
127
81
45
136
55
85
115
139
46
114
132
119
60
57
8
13
47
79
77
19
40
16
124
105
2
41
101
80
112
91
106
97
33
102
31
22
86
69
143
66
134
17
84
123
98
49
87
92
107
38
100
44
111
6
7
23
103
140
94
36
51
34
138
39
120
54
59
5
52
11
68
58
61
118
3
90
74
141
117
121
20
25
64
110
43
15
128
131
75
50
126
125
29
35
-1
EOF
